
Log started (V11.0.0) Thu May 15 17:19:54 2008

Tried aggregator 1 time.
Reduced MIP has 220 rows, 4001 columns, and 8020 nonzeros.
Presolve time =    0.03 sec.
Clique table members: 200.
MIP emphasis: balance optimality and feasibility.
MIP search method: dynamic search.
Parallel mode: none, using 1 thread.
Root relaxation solution time =    0.14 sec.

        Nodes                                         Cuts/
   Node  Left     Objective  IInf  Best Integer     Best Node    ItCnt     Gap

*     0+    0                        21916.0000     1005.9985      382   95.41%
*     0+    0                         1011.0000     1005.9985      382    0.49%
      0     0     1006.0000    36     1011.0000      Fract: 5      393    0.49%
      0     0     1006.0000    40     1011.0000     Covers: 1      396    0.49%
      0     0     1006.0000    44     1011.0000     Covers: 1      399    0.49%
*     0+    0                         1010.0000     1006.0000      399    0.40%
      0     2     1006.0000    44     1010.0000     1006.0000      399    0.40%
    100    81     1008.0000    29     1010.0000     1006.0000     2466    0.40%
    200    81        cutoff           1010.0000     1006.0000     4728    0.40%
    300   113     1009.0000    32     1010.0000     1006.0000     9476    0.40%
    400   135    infeasible           1010.0000     1006.0000    15786    0.40%
    500   208     1008.0000    36     1010.0000     1006.0000    17953    0.40%
    600   232     1009.0000    28     1010.0000     1007.0000    21537    0.30%
    700   180     1009.0000    34     1010.0000     1007.0000    26405    0.30%
    800   169     1007.0000    33     1010.0000     1007.0000    31508    0.30%
    900   223     1008.0237    36     1010.0000     1007.0000    34890    0.30%
   1000   248     1009.0000    30     1010.0000     1007.0000    48707    0.30%
Elapsed time =  19.14 sec. (tree size =  0.98 MB, solutions = 3)
   1100   294    infeasible           1010.0000     1007.0000    63784    0.30%
   1200   381     1007.0000    34     1010.0000     1007.0000    68591    0.30%
   1300   439     1009.0000    36     1010.0000     1007.0000    71415    0.30%
   1400   514     1007.0000    41     1010.0000     1007.0000    74931    0.30%
   1500   588     1008.0000    32     1010.0000     1007.0000    77640    0.30%
   1600   635     1007.0000    37     1010.0000     1007.0000    82288    0.30%
   1700   690     1007.0000    34     1010.0000     1007.0000    85058    0.30%
   1800   740     1008.0000    32     1010.0000     1007.0000    86861    0.30%
   1900   794    infeasible           1010.0000     1007.0000    89421    0.30%
   2000   820     1009.0000    33     1010.0000     1007.0000    92725    0.30%
Elapsed time =  31.66 sec. (tree size =  3.46 MB, solutions = 3)
   2100   885        cutoff           1010.0000     1007.0000    94548    0.30%
   2200   938     1009.0000    37     1010.0000     1007.0000    96192    0.30%
   2300  1002     1007.0000    37     1010.0000     1007.0000    99485    0.30%
   2400  1078    infeasible           1010.0000     1007.0000   100869    0.30%
   2500  1150     1008.0000    39     1010.0000     1007.0000   102084    0.30%
   2600  1183     1008.0000    37     1010.0000     1007.0000   103568    0.30%
   2700  1213     1009.0000    24     1010.0000     1007.0000   104739    0.30%
   2800  1233     1007.0000    30     1010.0000     1007.0000   107203    0.30%
   2900  1239     1007.0000    34     1010.0000     1007.0000   111086    0.30%
   3000  1328     1007.0000    36     1010.0000     1007.0000   113076    0.30%
Elapsed time =  38.38 sec. (tree size =  5.88 MB, solutions = 3)
   3100  1372     1007.0000    30     1010.0000     1007.0000   114934    0.30%
   3200  1455     1007.0000    31     1010.0000     1007.0000   116709    0.30%
   3300  1481        cutoff           1010.0000     1007.0000   119042    0.30%
   3400  1545     1007.0000    32     1010.0000     1007.0000   121448    0.30%
   3500  1538     1008.0000    34     1010.0000     1007.0000   125156    0.30%
   3600  1614     1007.0000    35     1010.0000     1007.0000   126597    0.30%
   3700  1713     1008.0000    38     1010.0000     1007.0000   127877    0.30%
   3800  1787     1007.0000    29     1010.0000     1007.0000   129376    0.30%
   3900  1851     1007.0000    32     1010.0000     1007.0000   130914    0.30%
   4000  1905     1007.0000    33     1010.0000     1007.0000   132262    0.30%
Elapsed time =  45.17 sec. (tree size =  9.15 MB, solutions = 3)
   4100  1986     1008.0000    30     1010.0000     1007.0000   132845    0.30%
   4200  2030     1008.0000    31     1010.0000     1007.0000   133481    0.30%
   4300  2097     1008.0000    31     1010.0000     1007.0000   134475    0.30%
   4400  2197     1008.0000    33     1010.0000     1007.0000   134616    0.30%
   4500  2211     1008.0000    38     1010.0000     1007.0000   136326    0.30%
   4600  2307     1008.0000    27     1010.0000     1007.0000   136714    0.30%
   4700  2392     1008.0000    30     1010.0000     1007.0000   137719    0.30%
   4800  2492     1008.0000    35     1010.0000     1007.0000   137908    0.30%
   4900  2527     1007.0000    41     1010.0000     1007.0000   139749    0.30%
*  4974+ 2143                         1009.0000     1007.0000   143419    0.20%
   5000  2167     1007.0000    46     1009.0000     1007.0000   143832    0.20%
Elapsed time =  50.80 sec. (tree size = 11.47 MB, solutions = 4)
   5100  2265     1008.0000    47     1009.0000     1007.0000   144630    0.20%
   5200  2303        cutoff           1009.0000     1007.0000   146865    0.20%
   5300  2247     1007.0000    42     1009.0000     1007.0000   150483    0.20%
   5400  2331     1008.0000    34     1009.0000     1007.0000   154772    0.20%
   5500  2411     1007.0000    32     1009.0000     1007.0000   157978    0.20%
   5600  2475    infeasible           1009.0000     1007.0000   162272    0.20%
   5700  2537     1008.0000    41     1009.0000     1007.0000   164644    0.20%
   5800  2615     1008.0000    37     1009.0000     1007.0000   167191    0.20%
   5900  2715     1008.0000    28     1009.0000     1007.0000   168087    0.20%
   6000  2815     1008.0000    37     1009.0000     1007.0000   169155    0.20%
Elapsed time =  63.16 sec. (tree size = 15.85 MB, solutions = 4)
   6100  2914     1008.0000    26     1009.0000     1007.0000   170191    0.20%
   6200  3009     1008.0000    22     1009.0000     1007.0000   172399    0.20%
   6300  3084     1008.0000    42     1009.0000     1007.0000   174974    0.20%
   6400  3183     1008.0000    37     1009.0000     1007.0000   176202    0.20%
   6500  3240     1008.0000    34     1009.0000     1007.0000   180898    0.20%
   6600  3327     1008.0000     6     1009.0000     1007.0000   182983    0.20%
*  6614+ 1034                         1008.0000     1007.0000   183298    0.10%
   6700  1104     1007.0000    49     1008.0000     1007.0000   186058    0.10%
   6800  1010    infeasible           1008.0000     1007.0000   270212    0.10%
   6900   910    infeasible           1008.0000     1007.0000   361295    0.10%
   7000   810    infeasible           1008.0000     1007.0000   462595    0.10%
Elapsed time = 121.98 sec. (tree size =  4.55 MB, solutions = 5)
   7100   748     1007.0000    32     1008.0000     1007.0000   539478    0.10%
   7200   826     1007.0000    30     1008.0000     1007.0000   549201    0.10%
   7300   904     1007.0000    26     1008.0000     1007.0000   559356    0.10%
   7400   942     1007.0000    43     1008.0000     1007.0000   577640    0.10%
   7500   964     1007.0000    31     1008.0000     1007.0000   602163    0.10%
   7600  1021     1007.0000    40     1008.0000     1007.0000   617822    0.10%
   7700  1064     1007.0000    28     1008.0000     1007.0000   630070    0.10%
   7800  1116    infeasible           1008.0000     1007.0000   645339    0.10%
   7900  1172     1007.0000    63     1008.0000     1007.0000   660793    0.10%
   8000  1246     1007.0000    22     1008.0000     1007.0000   670243    0.10%
Elapsed time = 179.91 sec. (tree size =  8.02 MB, solutions = 5)
   8100  1316     1007.0000    43     1008.0000     1007.0000   685584    0.10%
   8200  1388     1007.0000    45     1008.0000     1007.0000   696027    0.10%
   8300  1480     1007.0000    52     1008.0000     1007.0000   701080    0.10%
   8400  1547     1007.0000    40     1008.0000     1007.0000   714707    0.10%
   8500  1635     1007.0000    32     1008.0000     1007.0000   720469    0.10%
   8600  1721     1007.0000    69     1008.0000     1007.0000   728685    0.10%
   8700  1803    infeasible           1008.0000     1007.0000   735089    0.10%
*  8714+    1                         1007.0000     1007.0000   736183    0.00%

Cover cuts applied:  508
Mixed integer rounding cuts applied:  9
Gomory fractional cuts applied:  1

Solution pool: 6 solutions saved.

MIP - Integer optimal solution:  Objective = 1.0070000000e+003
Solution time =  204.59 sec.  Iterations = 736183  Nodes = 8714


Incumbent solution
Variable Name           Solution Value
Cmax                       1007.000000
X_1_4                         1.000000
X_2_9                         1.000000
X_3_2                         1.000000
X_4_2                         1.000000
X_5_17                        1.000000
X_6_4                         1.000000
X_7_15                        1.000000
X_8_16                        1.000000
X_9_19                        1.000000
X_10_7                        1.000000
X_11_16                       1.000000
X_12_1                        1.000000
X_13_15                       1.000000
X_14_8                        1.000000
X_15_10                       1.000000
X_16_15                       1.000000
X_17_17                       1.000000
X_18_10                       1.000000
X_19_9                        1.000000
X_20_17                       1.000000
X_21_5                        1.000000
X_22_11                       1.000000
X_23_3                        1.000000
X_24_1                        1.000000
X_25_9                        1.000000
X_26_17                       1.000000
X_27_18                       1.000000
X_28_2                        1.000000
X_29_11                       1.000000
X_30_20                       1.000000
X_31_19                       1.000000
X_32_1                        1.000000
X_33_7                        1.000000
X_34_2                        1.000000
X_35_7                        1.000000
X_36_17                       1.000000
X_37_9                        1.000000
X_38_13                       1.000000
X_39_6                        1.000000
X_40_6                        1.000000
X_41_9                        1.000000
X_42_2                        1.000000
X_43_19                       1.000000
X_44_1                        1.000000
X_45_14                       1.000000
X_46_19                       1.000000
X_47_3                        1.000000
X_48_4                        1.000000
X_49_9                        1.000000
X_50_17                       1.000000
X_51_17                       1.000000
X_52_20                       1.000000
X_53_4                        1.000000
X_54_10                       1.000000
X_55_5                        1.000000
X_56_2                        1.000000
X_57_8                        1.000000
X_58_14                       1.000000
X_59_4                        1.000000
X_60_8                        1.000000
X_61_13                       1.000000
X_62_18                       1.000000
X_63_4                        1.000000
X_64_16                       1.000000
X_65_13                       1.000000
X_66_14                       1.000000
X_67_5                        1.000000
X_68_20                       1.000000
X_69_5                        1.000000
X_70_15                       1.000000
X_71_13                       1.000000
X_72_13                       1.000000
X_73_4                        1.000000
X_74_9                        1.000000
X_75_11                       1.000000
X_76_14                       1.000000
X_77_8                        1.000000
X_78_3                        1.000000
X_79_14                       1.000000
X_80_10                       1.000000
X_81_15                       1.000000
X_82_16                       1.000000
X_83_16                       1.000000
X_84_7                        1.000000
X_85_12                       1.000000
X_86_19                       1.000000
X_87_16                       1.000000
X_88_10                       1.000000
X_89_12                       1.000000
X_90_19                       1.000000
X_91_8                        1.000000
X_92_14                       1.000000
X_93_11                       1.000000
X_94_1                        1.000000
X_94_3                       -0.000000
X_95_8                        1.000000
X_96_13                       1.000000
X_97_10                       1.000000
X_98_7                        1.000000
X_99_1                       -0.000000
X_99_2                        1.000000
X_100_6                       1.000000
X_101_11                      1.000000
X_102_18                      1.000000
X_103_15                      1.000000
X_104_12                      1.000000
X_105_3                       1.000000
X_106_18                      1.000000
X_107_14                      1.000000
X_108_4                       1.000000
X_109_14                      1.000000
X_110_5                       1.000000
X_111_3                       1.000000
X_112_4                       1.000000
X_113_6                       1.000000
X_114_17                      1.000000
X_115_5                       1.000000
X_116_12                      1.000000
X_117_13                      1.000000
X_118_12                      1.000000
X_119_18                      1.000000
X_120_16                      1.000000
X_121_20                      1.000000
X_122_12                      1.000000
X_123_8                       1.000000
X_124_17                      1.000000
X_125_18                      1.000000
X_126_6                       1.000000
X_127_13                      1.000000
X_128_15                      1.000000
X_129_6                       1.000000
X_130_3                       1.000000
X_130_8                      -0.000000
X_131_7                       1.000000
X_132_16                      1.000000
X_133_3                       1.000000
X_134_9                       1.000000
X_135_3                       1.000000
X_136_1                       1.000000
X_137_19                      1.000000
X_138_18                      1.000000
X_139_12                      1.000000
X_140_10                      1.000000
X_141_18                      1.000000
X_142_10                      1.000000
X_143_13                      1.000000
X_144_15                      1.000000
X_145_14                      1.000000
X_146_6                       1.000000
X_147_11                      1.000000
X_148_12                      1.000000
X_149_6                       1.000000
X_150_12                      1.000000
X_151_6                       1.000000
X_152_20                      1.000000
X_153_8                       1.000000
X_154_2                       1.000000
X_155_8                       1.000000
X_156_12                      1.000000
X_157_15                      1.000000
X_158_16                      1.000000
X_159_10                      1.000000
X_160_19                      1.000000
X_161_3                       1.000000
X_162_11                      1.000000
X_163_16                      1.000000
X_164_20                      1.000000
X_165_18                      1.000000
X_166_7                       1.000000
X_167_5                       1.000000
X_168_5                       1.000000
X_169_1                       1.000000
X_170_4                       1.000000
X_171_20                      1.000000
X_172_18                      1.000000
X_173_11                      1.000000
X_174_7                       1.000000
X_174_8                       0.000000
X_175_1                       1.000000
X_176_17                      1.000000
X_177_11                      1.000000
X_178_7                       1.000000
X_179_20                      1.000000
X_180_19                      1.000000
X_181_19                      1.000000
X_182_20                      1.000000
X_183_5                       1.000000
X_184_2                       1.000000
X_185_14                      1.000000
X_186_13                      1.000000
X_187_10                      1.000000
X_188_20                      1.000000
X_189_7                       1.000000
X_190_2                       1.000000
X_190_7                       0.000000
X_191_11                      1.000000
X_192_9                       1.000000
X_193_1                       1.000000
X_194_5                       1.000000
X_195_1                       1.000000
X_196_15                      1.000000
X_197_6                       1.000000
X_198_3                       1.000000
X_199_8                       1.000000
X_200_9                       1.000000
All other variables in the range 1-4001 are 0.
